(set-option :produce-models true); benchmark generated from python API
(set-info :status unknown)
(declare-fun l_0_0_4 () Real)
(declare-fun _a_0_ () Real)
(declare-fun l_0_0_5 () Real)
(declare-fun l_0_0_1 () Real)
(declare-fun _a_1_ () Real)
(declare-fun l_0_0_6 () Real)
(declare-fun l_0_0_2 () Real)
(declare-fun _a_2_ () Real)
(declare-fun l_0_0_3 () Real)
(declare-fun l_0_1_7 () Real)
(declare-fun l_0_1_4 () Real)
(declare-fun l_0_1_1 () Real)
(declare-fun l_0_1_9 () Real)
(declare-fun l_0_1_8 () Real)
(declare-fun l_0_1_6 () Real)
(declare-fun l_0_1_5 () Real)
(declare-fun l_0_1_2 () Real)
(declare-fun l_0_1_3 () Real)
(declare-fun l_0_2_7 () Real)
(declare-fun l_0_2_4 () Real)
(declare-fun l_0_2_1 () Real)
(declare-fun l_0_2_8 () Real)
(declare-fun l_0_2_5 () Real)
(declare-fun l_0_2_2 () Real)
(declare-fun l_0_2_9 () Real)
(declare-fun l_0_2_6 () Real)
(declare-fun l_0_2_3 () Real)
(assert
 (= (- _a_0_ (* l_0_0_4 l_0_0_4)) 0.0))
(assert
 (let ((?x65 (- (- _a_1_ (* (* 1.0 l_0_0_1) l_0_0_1)) (* (* 2.0 l_0_0_4) l_0_0_5))))
 (= ?x65 0.0)))
(assert
 (let ((?x84 (* l_0_0_6 l_0_0_6)))
 (let ((?x82 (* l_0_0_5 l_0_0_5)))
 (let ((?x67 (* l_0_0_1 l_0_0_1)))
 (let ((?x85 (- (- (+ (- _a_2_ (* (* 2.0 l_0_0_1) l_0_0_2)) ?x67) ?x82) ?x84)))
 (= ?x85 0.0))))))
(assert
 (let ((?x79 (* (* 2.0 l_0_0_1) l_0_0_2)))
 (let ((?x106 (- (- ?x79 (* (* 1.0 l_0_0_2) l_0_0_2)) (* (* 1.0 l_0_0_3) l_0_0_3))))
 (= ?x106 0.0))))
(assert
 (= (+ (* l_0_0_2 l_0_0_2) (* l_0_0_3 l_0_0_3)) 0.0))
(assert
 (>= l_0_0_1 0.0))
(assert
 (>= l_0_0_3 0.0))
(assert
 (>= l_0_0_4 0.0))
(assert
 (>= l_0_0_6 0.0))
(assert
 (let ((?x129 (* l_0_1_7 l_0_1_7)))
 (let ((?x125 (* l_0_1_4 l_0_1_4)))
 (let ((?x127 (* (/ 51.0 100.0) ?x125)))
 (= (+ (- (+ (* (* (- _a_0_) l_0_1_1) l_0_1_1) ?x127) ?x129) (/ 3.0 2.0)) 0.0)))))
(assert
 (let ((?x167 (* l_0_1_9 l_0_1_9)))
 (let ((?x165 (* l_0_1_8 l_0_1_8)))
 (let ((?x162 (* l_0_1_6 l_0_1_6)))
 (let ((?x163 (* (/ 51.0 100.0) ?x162)))
 (let ((?x159 (* l_0_1_5 l_0_1_5)))
 (let ((?x160 (* (/ 51.0 100.0) ?x159)))
 (let ((?x125 (* l_0_1_4 l_0_1_4)))
 (let ((?x150 (- (* (- _a_0_) (+ (* l_0_1_2 l_0_1_2) (* l_0_1_3 l_0_1_3))) (* (* (* 2.0 _a_1_) l_0_1_1) l_0_1_2))))
 (let ((?x157 (+ (- ?x150 (* (* _a_2_ l_0_1_1) l_0_1_1)) (* (* (/ 14.0 5.0) l_0_1_4) l_0_1_5))))
 (= (- (- (- (+ (+ (- ?x157 ?x125) ?x160) ?x163) ?x165) ?x167) 1.0) 0.0)))))))))))
(assert
 (let ((?x125 (* l_0_1_4 l_0_1_4)))
 (let ((?x220 (* (/ 7.0 5.0) ?x125)))
 (let ((?x214 (- (* (* (* (- 2.0) _a_0_) l_0_1_1) l_0_1_2) (* (* _a_1_ l_0_1_1) l_0_1_1))))
 (let ((?x224 (- (+ (+ ?x214 (* (* (/ 51.0 50.0) l_0_1_4) l_0_1_5)) ?x220) (* (* 2.0 l_0_1_7) l_0_1_8))))
 (= (+ ?x224 (/ 1.0 2.0)) 0.0))))))
(assert
 (let ((?x162 (* l_0_1_6 l_0_1_6)))
 (let ((?x255 (* (/ 7.0 5.0) ?x162)))
 (let ((?x159 (* l_0_1_5 l_0_1_5)))
 (let ((?x253 (* (/ 7.0 5.0) ?x159)))
 (let ((?x249 (- (* (- _a_1_) (+ (* l_0_1_2 l_0_1_2) (* l_0_1_3 l_0_1_3))) (* (* (* 2.0 _a_2_) l_0_1_1) l_0_1_2))))
 (= (+ (+ (- ?x249 (* (* 2.0 l_0_1_4) l_0_1_5)) ?x253) ?x255) 0.0)))))))
(assert
 (let ((?x162 (* l_0_1_6 l_0_1_6)))
 (let ((?x159 (* l_0_1_5 l_0_1_5)))
 (let ((?x279 (- (* (- _a_2_) (+ (* l_0_1_2 l_0_1_2) (* l_0_1_3 l_0_1_3))) ?x159)))
 (= (- ?x279 ?x162) 0.0)))))
(assert
 (>= l_0_1_1 0.0))
(assert
 (>= l_0_1_3 0.0))
(assert
 (>= l_0_1_4 0.0))
(assert
 (>= l_0_1_6 0.0))
(assert
 (>= l_0_1_7 0.0))
(assert
 (>= l_0_1_9 0.0))
(assert
 (let ((?x308 (* l_0_2_7 l_0_2_7)))
 (let ((?x307 (- (+ (* (* (- _a_0_) l_0_2_1) l_0_2_1) _a_0_) (* (* (/ 51.0 100.0) l_0_2_4) l_0_2_4))))
 (= (- ?x307 ?x308) 0.0))))
(assert
 (let ((?x330 (* (/ 8.0 5.0) _a_1_)))
 (let ((?x328 (- (* (* (* (- 2.0) _a_0_) l_0_2_1) l_0_2_2) (* (* _a_1_ l_0_2_1) l_0_2_1))))
 (let ((?x337 (- (- (- ?x328 ?x330) (* (* (/ 51.0 50.0) l_0_2_4) l_0_2_5)) (* (* (/ 7.0 5.0) l_0_2_4) l_0_2_4))))
 (= (- ?x337 (* (* 2.0 l_0_2_7) l_0_2_8)) 0.0)))))
(assert
 (let ((?x401 (* l_0_2_9 l_0_2_9)))
 (let ((?x399 (* l_0_2_8 l_0_2_8)))
 (let ((?x312 (* l_0_2_4 l_0_2_4)))
 (let ((?x387 (* (/ 64.0 25.0) _a_2_)))
 (let ((?x330 (* (/ 8.0 5.0) _a_1_)))
 (let ((?x381 (- (* (- _a_0_) (+ (* l_0_2_2 l_0_2_2) (* l_0_2_3 l_0_2_3))) (* (* (* 2.0 _a_1_) l_0_2_1) l_0_2_2))))
 (let ((?x391 (- (+ (- (+ ?x381 ?x330) (* (* _a_2_ l_0_2_1) l_0_2_1)) ?x387) (* (* (/ 14.0 5.0) l_0_2_4) l_0_2_5))))
 (let ((?x398 (- (- (+ ?x391 ?x312) (* (* (/ 51.0 100.0) l_0_2_5) l_0_2_5)) (* (* (/ 51.0 100.0) l_0_2_6) l_0_2_6))))
 (= (- (- ?x398 ?x399) ?x401) 0.0))))))))))
(assert
 (let ((?x451 (* (/ 128.0 25.0) _a_2_)))
 (let ((?x449 (- (* (- _a_1_) (+ (* l_0_2_2 l_0_2_2) (* l_0_2_3 l_0_2_3))) (* (* (* 2.0 _a_2_) l_0_2_1) l_0_2_2))))
 (let ((?x458 (- (+ (- ?x449 ?x451) (* (* 2.0 l_0_2_4) l_0_2_5)) (* (* (/ 7.0 5.0) l_0_2_5) l_0_2_5))))
 (= (- ?x458 (* (* (/ 7.0 5.0) l_0_2_6) l_0_2_6)) 0.0)))))
(assert
 (let ((?x433 (* l_0_2_6 l_0_2_6)))
 (let ((?x427 (* l_0_2_5 l_0_2_5)))
 (let ((?x387 (* (/ 64.0 25.0) _a_2_)))
 (let ((?x495 (+ (* (- _a_2_) (+ (* l_0_2_2 l_0_2_2) (* l_0_2_3 l_0_2_3))) ?x387)))
 (= (+ (+ ?x495 ?x427) ?x433) 0.0))))))
(assert
 (>= l_0_2_1 0.0))
(assert
 (>= l_0_2_3 0.0))
(assert
 (>= l_0_2_4 0.0))
(assert
 (>= l_0_2_6 0.0))
(assert
 (>= l_0_2_7 0.0))
(assert
 (>= l_0_2_9 0.0))
(check-sat)
(get-model)